\* Problem: Unknown *\

Maximize
 obj: + xp_0_0 + xp_0_1 + xp_0_2 + xp_1_0 + xp_1_1 + xp_1_2 + xp_1_3
 + xp_1_4 + xp_1_5 + xp_1_6 + xp_1_7 + xp_2_0 + xp_2_1 + xp_2_2 + xp_2_3
 + xp_2_4 + xp_2_5 + xp_2_6 + xp_2_7 + xp_2_8 + xp_2_9 + xp_3_0 + xp_3_1
 + xp_3_2 + xp_3_3 + xp_3_4 + xp_3_5 + xp_3_6 + xp_3_7 + xp_3_8 + xp_4_0
 + xp_4_1 + xp_5_0 + xp_5_1 + xp_5_2 + xp_6_0 + xp_6_1 + xp_6_2 + xp_7_0
 + xp_7_1 + xp_8_0 + xp_8_1 + xp_8_2 + xp_9_0 + xp_9_1 + xp_9_2
 + xp_10_0 + xp_10_1 + xp_10_2 + xp_10_3 + xp_10_4 + xp_11_0 + xp_11_1
 + xp_12_0 + xp_12_1 + xp_13_0 + xp_13_1 + xp_13_2 + xp_13_3 + xp_14_0
 + xp_14_1 + xp_14_2 + xp_14_3 + xp_14_4 + xp_14_5 + xp_14_6 + xp_14_7
 + xp_14_8 + xp_15_0 + xp_15_1 + xp_15_2 + xp_15_3 + xp_15_4 + xp_16_0
 + xp_16_1 + xp_17_0 + xp_17_1 + xp_17_2 + xp_17_3 + xp_17_4 + xp_17_5
 + xp_18_0 + xp_18_1 + xp_18_2 + xp_18_3 + xp_18_4 + xp_18_5 + xp_19_0
 + xp_19_1 + xp_19_2 + xp_19_3 + xp_19_4 + xp_19_5 + xp_19_6 + xp_19_7
 + xp_19_8 + xp_19_9 + xp_19_10 + xp_19_11 + xp_20_0 + xp_20_1 + xp_20_2
 + xp_20_3 + xp_20_4 + xp_20_5 + xp_20_6 + xp_21_0 + xp_21_1 + xp_21_2
 + xp_21_3

Subject To
 r_1: + xp_20_0 <= 0.957542457542458
 r_2: + xp_10_0 + xp_2_1 <= 0.957542457542458
 r_3: + xp_20_6 + xp_20_2 + xp_10_3 + xp_4_1 <= 0.914817465998568
 r_4: + xp_20_5 + xp_19_6 + xp_18_0 + xp_11_1 + xp_10_2
 <= 0.914817465998568
 r_5: + xp_21_3 + xp_20_3 + xp_10_4 + xp_3_2 + xp_2_5
 <= 0.922077922077922
 r_6: + xp_19_10 + xp_11_0 <= 0.914817465998568
 r_7: + xp_20_4 + xp_18_3 + xp_10_1 + xp_3_6 <= 0.951196172248804
 r_8: + xp_20_1 <= 0.911519777931992
 r_9: + xp_2_0 + xp_1_5 <= 0.957542457542458
 r_10: 0 xp_0_0 <= 0.914817465998568
 r_11: + xp_1_3 <= 0.951196172248804
 r_12: 0 xp_0_0 <= 0.911519777931992
 r_13: 0 xp_0_0 <= 0.914817465998568
 r_14: + xp_2_4 <= 0.914817465998568
 r_15: + xp_3_3 + xp_1_7 <= 0.922077922077922
 r_16: + xp_13_1 <= 0.939982347749338
 r_17: 0 xp_0_0 <= 0.957542457542458
 r_18: + xp_19_5 + xp_19_0 + xp_12_1 <= 0.914817465998568
 r_19: + xp_15_3 + xp_14_7 + xp_14_3 <= 0.939982347749338
 r_20: + xp_1_2 <= 0.93500424808836
 r_21: 0 xp_0_0 <= 0.914817465998568
 r_22: + xp_2_6 + xp_0_1 <= 0.914817465998568
 r_23: 0 xp_0_0 <= 0.911519777931992
 r_24: 0 xp_0_0 <= 0.911519777931992
 r_25: 0 xp_0_0 <= 0.922077922077922
 r_26: + xp_17_0 + xp_15_4 + xp_14_5 <= 0.922077922077922
 r_27: + xp_20_3 + xp_7_1 + xp_1_7 + xp_1_0 <= 0.93500424808836
 r_28: 0 xp_0_0 <= 0.914817465998568
 r_29: + xp_17_1 + xp_14_6 + xp_10_4 + xp_2_5 + xp_2_3
 <= 0.957542457542458
 r_30: + xp_19_8 + xp_18_1 + xp_17_5 + xp_17_4 + xp_17_3
 <= 0.914817465998568
 r_31: + xp_0_2 <= 0.951196172248804
 r_32: + xp_19_1 + xp_17_2 + xp_6_2 <= 0.914817465998568
 r_33: + xp_21_1 + xp_13_3 + xp_3_5 + xp_1_4 <= 0.93500424808836
 r_34: + xp_13_0 <= 0.914817465998568
 r_35: + xp_17_3 + xp_17_2 + xp_13_1 <= 0.914817465998568
 r_36: + xp_21_2 + xp_13_2 + xp_3_8 + xp_2_9 + xp_2_8
 <= 0.914817465998568
 r_37: + xp_21_3 + xp_9_1 <= 0.914817465998568
 r_38: 0 xp_0_0 <= 0.911519777931992
 r_39: + xp_21_0 + xp_3_1 <= 0.914817465998568
 r_40: + xp_18_4 <= 0.914817465998568
 r_41: 0 xp_0_0 <= 0.957542457542458
 r_42: + xp_17_5 + xp_17_1 + xp_15_1 + xp_14_6 + xp_14_1 + xp_8_2
 <= 0.957542457542458
 r_43: + xp_19_7 + xp_1_5 <= 0.93500424808836
 r_44: 0 xp_0_0 <= 0.914817465998568
 r_45: 0 xp_0_0 <= 0.957542457542458
 r_46: 0 xp_0_0 <= 0.951196172248804
 r_47: + xp_19_11 + xp_19_9 + xp_19_7 + xp_6_0 <= 0.93500424808836
 r_48: + xp_19_3 + xp_18_5 + xp_6_1 + xp_5_1 <= 0.914817465998568
 r_49: 0 xp_0_0 <= 0.914817465998568
 r_50: + xp_20_6 + xp_20_4 + xp_20_3 + xp_19_5 + xp_16_1 + xp_14_7
 + xp_13_3 <= 0.93500424808836
 r_51: + xp_21_1 + xp_6_2 + xp_3_5 <= 0.93500424808836
 r_52: + xp_5_0 <= 0.93500424808836
 r_53: + xp_14_8 + xp_5_2 <= 0.951196172248804
 r_54: + xp_17_5 + xp_10_2 + xp_8_2 + xp_5_1 + xp_2_9 + xp_2_6 + xp_2_4
 <= 0.914817465998568
 r_55: + xp_16_1 + xp_7_0 <= 0.914817465998568
 r_56: + xp_19_8 + xp_19_6 + xp_19_4 + xp_19_3 + xp_17_3 + xp_11_1
 + xp_6_1 <= 0.914817465998568
 r_57: 0 xp_0_0 <= 0.914817465998568
 r_58: + xp_17_4 + xp_15_2 + xp_14_4 + xp_8_0 <= 0.914817465998568
 r_59: + xp_20_5 + xp_16_0 + xp_15_3 + xp_13_2 <= 0.914817465998568
 r_60: + xp_21_2 + xp_7_1 + xp_3_8 <= 0.914817465998568
 r_61: + xp_8_1 + xp_2_8 + xp_0_1 <= 0.951196172248804
 r_62: + xp_20_6 + xp_19_11 + xp_19_5 + xp_19_3 + xp_18_5 + xp_14_8
 + xp_14_7 + xp_1_1 <= 0.914817465998568
 r_63: + xp_19_10 + xp_19_6 + xp_18_3 + xp_18_0 + xp_9_2
 <= 0.914817465998568
 r_64: + xp_14_0 <= 0.914817465998568
 r_65: + xp_20_2 + xp_19_0 + xp_14_3 <= 0.914817465998568
 r_66: + xp_19_8 + xp_19_1 + xp_18_1 + xp_14_6 + xp_14_5
 <= 0.914817465998568
 r_67: + xp_19_7 + xp_18_4 + xp_14_1 + xp_10_3 + xp_2_2
 <= 0.914817465998568
 r_68: + xp_19_9 + xp_19_4 + xp_18_2 + xp_14_4 + xp_14_2 + xp_3_7
 <= 0.951196172248804
 r_69: + xp_19_2 <= 0.911519777931992
 r_70: 0 xp_0_0 <= 0.911519777931992
 r_71: + xp_15_0 + xp_14_8 + xp_14_2 + xp_8_1 <= 0.951196172248804
 r_72: + xp_4_1 <= 0.951196172248804
 r_73: + xp_15_4 + xp_3_7 + xp_3_6 + xp_3_4 <= 0.951196172248804
 r_74: + xp_15_1 + xp_10_1 + xp_5_2 + xp_2_8 + xp_2_7
 <= 0.951196172248804
 r_75: + xp_20_4 + xp_19_9 + xp_1_6 + xp_1_3 <= 0.951196172248804
 r_76: + xp_19_4 + xp_18_3 + xp_18_2 + xp_15_3 + xp_15_2 + xp_14_4
 <= 0.951196172248804
 r_77: + xp_4_0 <= 0.951196172248804
 r_78: + xp_3_0 + xp_2_3 + xp_1_0 + xp_0_2 <= 0.911519777931992
 r_79: + xp_3_4 + xp_2_7 + xp_1_6 + xp_0_0 <= 0.911519777931992
 r_80: + xp_3_3 + xp_2_4 + xp_2_0 + xp_1_7 + xp_1_5 + xp_1_3
 <= 0.911519777931992
 r_81: + xp_9_0 + xp_3_6 + xp_3_2 + xp_2_5 + xp_2_1 <= 0.911519777931992
 r_82: + xp_20_1 + xp_12_1 + xp_2_6 + xp_1_2 + xp_0_1
 <= 0.911519777931992
 r_83: + xp_19_2 + xp_12_0 + xp_9_1 + xp_3_8 + xp_3_5 + xp_3_1 + xp_2_9
 + xp_2_8 + xp_1_4 <= 0.911519777931992
 r_84: + xp_9_2 + xp_3_7 + xp_2_2 + xp_1_1 <= 0.911519777931992

Bounds
 0 <= xp_0_0 <= 0.451612903225806
 0 <= xp_0_1 <= 0.193548387096774
 0 <= xp_0_2 <= 0.258064516129032
 0 <= xp_1_0 <= 0.129032258064516
 0 <= xp_1_1 <= 0.354838709677419
 0 <= xp_1_2 <= 0.419354838709677
 0 <= xp_1_3 <= 0.0967741935483871
 0 <= xp_1_4 <= 0.129032258064516
 0 <= xp_1_5 <= 0.032258064516129
 0 <= xp_1_6 <= 0.0645161290322581
 0 <= xp_1_7 <= 0.129032258064516
 0 <= xp_2_0 <= 0.419354838709677
 0 <= xp_2_1 <= 0.0645161290322581
 0 <= xp_2_2 <= 0.419354838709677
 0 <= xp_2_3 <= 0.032258064516129
 0 <= xp_2_4 <= 0.0645161290322581
 0 <= xp_2_5 <= 0.193548387096774
 0 <= xp_2_6 <= 0.0645161290322581
 0 <= xp_2_7 <= 0.032258064516129
 0 <= xp_2_8 <= 0.032258064516129
 0 <= xp_2_9 <= 0.032258064516129
 0 <= xp_3_0 <= 0.580645161290323
 0 <= xp_3_1 <= 0.0645161290322581
 0 <= xp_3_2 <= 0.32258064516129
 0 <= xp_3_3 <= 0.193548387096774
 0 <= xp_3_4 <= 0.387096774193548
 0 <= xp_3_5 <= 0.0645161290322581
 0 <= xp_3_6 <= 0.0645161290322581
 0 <= xp_3_7 <= 0.0645161290322581
 0 <= xp_3_8 <= 0.0645161290322581
 0 <= xp_4_0 <= 0.419354838709677
 0 <= xp_4_1 <= 0.032258064516129
 0 <= xp_5_0 <= 0.645161290322581
 0 <= xp_5_1 <= 0.193548387096774
 0 <= xp_5_2 <= 0.0645161290322581
 0 <= xp_6_0 <= 0.645161290322581
 0 <= xp_6_1 <= 0.129032258064516
 0 <= xp_6_2 <= 0.129032258064516
 0 <= xp_7_0 <= 0.419354838709677
 0 <= xp_7_1 <= 0.032258064516129
 0 <= xp_8_0 <= 0.387096774193548
 0 <= xp_8_1 <= 0.032258064516129
 0 <= xp_8_2 <= 0.032258064516129
 0 <= xp_9_0 <= 0.258064516129032
 0 <= xp_9_1 <= 0.129032258064516
 0 <= xp_9_2 <= 0.0645161290322581
 0 <= xp_10_0 <= 0.741935483870968
 0 <= xp_10_1 <= 0.290322580645161
 0 <= xp_10_2 <= 0.193548387096774
 0 <= xp_10_3 <= 0.0967741935483871
 0 <= xp_10_4 <= 0.032258064516129
 0 <= xp_11_0 <= 0.709677419354839
 0 <= xp_11_1 <= 0.193548387096774
 0 <= xp_12_0 <= 0.354838709677419
 0 <= xp_12_1 <= 0.0967741935483871
 0 <= xp_13_0 <= 0.838709677419355
 0 <= xp_13_1 <= 0.709677419354839
 0 <= xp_13_2 <= 0.193548387096774
 0 <= xp_13_3 <= 0.0645161290322581
 0 <= xp_14_0 <= 0.935483870967742
 0 <= xp_14_1 <= 0.193548387096774
 0 <= xp_14_2 <= 0.451612903225806
 0 <= xp_14_3 <= 0.419354838709677
 0 <= xp_14_4 <= 0.032258064516129
 0 <= xp_14_5 <= 0.032258064516129
 0 <= xp_14_6 <= 0.0645161290322581
 0 <= xp_14_7 <= 0.0645161290322581
 0 <= xp_14_8 <= 0.0645161290322581
 0 <= xp_15_0 <= 0.32258064516129
 0 <= xp_15_1 <= 0.193548387096774
 0 <= xp_15_2 <= 0.258064516129032
 0 <= xp_15_3 <= 0.0645161290322581
 0 <= xp_15_4 <= 0.0645161290322581
 0 <= xp_16_0 <= 0.387096774193548
 0 <= xp_16_1 <= 0.0645161290322581
 0 <= xp_17_0 <= 0.774193548387097
 0 <= xp_17_1 <= 0.290322580645161
 0 <= xp_17_2 <= 0.0645161290322581
 0 <= xp_17_3 <= 0.032258064516129
 0 <= xp_17_4 <= 0.161290322580645
 0 <= xp_17_5 <= 0.032258064516129
 0 <= xp_18_0 <= 0.161290322580645
 0 <= xp_18_1 <= 0.129032258064516
 0 <= xp_18_2 <= 0.0645161290322581
 0 <= xp_18_3 <= 0.032258064516129
 0 <= xp_18_4 <= 0.032258064516129
 0 <= xp_18_5 <= 0.032258064516129
 0 <= xp_19_0 <= 0.129032258064516
 0 <= xp_19_1 <= 0.516129032258065
 0 <= xp_19_2 <= 0.032258064516129
 0 <= xp_19_3 <= 0.129032258064516
 0 <= xp_19_4 <= 0.0967741935483871
 0 <= xp_19_5 <= 0.032258064516129
 0 <= xp_19_6 <= 0.0967741935483871
 0 <= xp_19_7 <= 0.032258064516129
 0 <= xp_19_8 <= 0.0645161290322581
 0 <= xp_19_9 <= 0.032258064516129
 0 <= xp_19_10 <= 0.161290322580645
 0 <= xp_19_11 <= 0.032258064516129
 0 <= xp_20_0 <= 0.967741935483871
 0 <= xp_20_1 <= 0.161290322580645
 0 <= xp_20_2 <= 0.354838709677419
 0 <= xp_20_3 <= 0.193548387096774
 0 <= xp_20_4 <= 0.387096774193548
 0 <= xp_20_5 <= 0.129032258064516
 0 <= xp_20_6 <= 0.0645161290322581
 0 <= xp_21_0 <= 0.645161290322581
 0 <= xp_21_1 <= 0.354838709677419
 0 <= xp_21_2 <= 0.32258064516129
 0 <= xp_21_3 <= 0.032258064516129

End
